SDVRP instances/p11/p11_7090_tsplib0_split0.vrp
NAME:.\SDVRP_split
BEST_KNOWN: 0
COMMENT: 0
DIMENSION: 850
CAPACITY: 200
EDGE_WEIGHT_FORMAT: FUNCTION
EDGE_WEIGHT_TYPE: EXACT_2D
NODE_COORD_SECTION
1 0.00000 0.00000
2 15 -44
3 15 -44
4 15 -44
5 15 -44
6 15 -44
7 15 -44
8 15 -44
9 15 -42
10 15 -42
11 15 -42
12 15 -42
13 15 -42
14 15 -42
15 15 -42
16 15 -42
17 21 -40
18 21 -40
19 21 -40
20 21 -40
21 21 -40
22 21 -40
23 21 -40
24 21 -40
25 21 -40
26 22 -40
27 22 -40
28 22 -40
29 22 -40
30 22 -40
31 21 -38
32 21 -38
33 21 -38
34 21 -38
35 21 -38
36 21 -38
37 21 -38
38 21 -38
39 22 -36
40 22 -36
41 22 -36
42 22 -36
43 22 -36
44 22 -36
45 22 -36
46 24 -36
47 24 -36
48 24 -36
49 24 -36
50 24 -36
51 24 -36
52 24 -36
53 24 -36
54 24 -36
55 24 -36
56 36 -36
57 36 -36
58 36 -36
59 36 -36
60 36 -36
61 36 -36
62 25 -38
63 25 -38
64 25 -38
65 25 -38
66 25 -38
67 25 -38
68 25 -38
69 25 -38
70 24 -39
71 24 -39
72 24 -39
73 24 -39
74 24 -39
75 25 -40
76 25 -40
77 25 -40
78 25 -40
79 25 -40
80 25 -40
81 37 -39
82 37 -39
83 37 -39
84 37 -39
85 37 -39
86 37 -39
87 37 -39
88 37 -39
89 30 -40
90 30 -40
91 30 -40
92 30 -40
93 30 -40
94 30 -40
95 30 -40
96 30 -40
97 30 -40
98 29 -42
99 29 -42
100 29 -42
101 29 -42
102 26 -42
103 26 -42
104 26 -42
105 26 -42
106 26 -42
107 26 -42
108 26 -42
109 26 -42
110 63 -39
111 63 -39
112 63 -39
113 63 -39
114 63 -39
115 63 -39
116 63 -37
117 63 -37
118 63 -37
119 63 -37
120 63 -37
121 63 -37
122 14 -9
123 14 -9
124 14 -9
125 14 -9
126 66 -39
127 66 -39
128 66 -39
129 66 -39
130 66 -39
131 66 -39
132 66 -39
133 66 -35
134 66 -35
135 66 -35
136 66 -35
137 66 -35
138 66 -32
139 66 -32
140 66 -32
141 66 -32
142 66 -32
143 66 -32
144 68 -42
145 68 -42
146 68 -42
147 68 -42
148 68 -42
149 68 -42
150 68 -42
151 68 -36
152 68 -36
153 68 -36
154 68 -36
155 68 -36
156 68 -36
157 68 -36
158 69 -42
159 69 -42
160 69 -42
161 69 -42
162 69 -42
163 69 -42
164 69 -40
165 69 -40
166 69 -40
167 69 -40
168 69 -40
169 69 -40
170 69 -34
171 69 -34
172 69 -34
173 69 -34
174 69 -34
175 69 -34
176 69 -34
177 69 -34
178 69 -34
179 72 -42
180 72 -42
181 72 -42
182 72 -42
183 72 -42
184 72 -38
185 72 -38
186 72 -38
187 72 -38
188 72 -38
189 72 -38
190 80 -30
191 80 -30
192 80 -30
193 80 -30
194 80 -30
195 80 -30
196 80 -30
197 74 -42
198 74 -42
199 74 -42
200 74 -42
201 74 -42
202 74 -42
203 74 -40
204 74 -40
205 74 -40
206 74 -40
207 74 -40
208 74 -40
209 74 -40
210 74 -36
211 74 -36
212 74 -36
213 74 -36
214 74 -36
215 74 -36
216 75 -44
217 75 -44
218 75 -44
219 75 -44
220 75 -44
221 75 -44
222 75 -44
223 77 -40
224 77 -40
225 77 -40
226 77 -40
227 77 -40
228 77 -40
229 77 -40
230 77 -40
231 75 -37
232 75 -37
233 75 -37
234 75 -37
235 75 -37
236 75 -37
237 75 -37
238 77 -38
239 77 -38
240 77 -38
241 77 -38
242 77 -38
243 77 -38
244 77 -38
245 77 -38
246 77 -38
247 77 -38
248 76 -4
249 76 -4
250 76 -4
251 76 -4
252 76 -4
253 76 -4
254 76 -1
255 76 -1
256 76 -1
257 76 -1
258 76 -1
259 76 -1
260 76 -1
261 76 -1
262 76 -1
263 76 -1
264 76 1
265 76 1
266 76 1
267 76 1
268 76 1
269 76 1
270 76 1
271 76 1
272 76 1
273 76 1
274 75 10
275 75 10
276 75 10
277 75 10
278 75 10
279 75 10
280 75 10
281 79 -2
282 79 -2
283 79 -2
284 79 -2
285 79 -2
286 79 -2
287 79 -2
288 79 -2
289 79 1
290 79 1
291 79 1
292 79 1
293 79 1
294 79 7
295 79 7
296 79 7
297 79 7
298 79 7
299 79 7
300 79 7
301 82 -3
302 82 -3
303 82 -3
304 82 -3
305 82 -3
306 82 -3
307 82 -3
308 82 7
309 82 7
310 82 7
311 82 7
312 82 7
313 82 7
314 82 7
315 82 7
316 84 -3
317 84 -3
318 84 -3
319 84 -3
320 84 -3
321 84 -3
322 84 -1
323 84 -1
324 84 -1
325 84 -1
326 84 -1
327 84 -1
328 84 -1
329 84 -1
330 84 -1
331 84 -1
332 84 3
333 84 3
334 84 3
335 84 3
336 84 3
337 84 3
338 84 3
339 84 3
340 84 3
341 86 -3
342 86 -3
343 86 -3
344 86 -3
345 86 -3
346 86 -3
347 86 -3
348 89 1
349 89 1
350 89 1
351 89 1
352 89 1
353 89 1
354 89 5
355 89 5
356 89 5
357 89 5
358 89 5
359 89 5
360 89 5
361 73 35
362 73 35
363 73 35
364 73 35
365 73 35
366 73 35
367 73 35
368 73 38
369 73 38
370 73 38
371 73 38
372 73 38
373 73 38
374 75 36
375 75 36
376 75 36
377 75 36
378 75 36
379 75 36
380 75 36
381 75 36
382 75 40
383 75 40
384 75 40
385 75 40
386 75 40
387 75 40
388 75 40
389 75 40
390 75 40
391 75 44
392 75 44
393 75 44
394 75 44
395 75 44
396 75 44
397 75 44
398 75 44
399 75 44
400 77 35
401 77 35
402 77 35
403 77 35
404 77 35
405 77 35
406 77 41
407 77 41
408 77 41
409 77 41
410 77 41
411 77 41
412 77 41
413 77 41
414 80 32
415 80 32
416 80 32
417 80 32
418 80 32
419 80 32
420 80 32
421 80 32
422 80 43
423 80 43
424 80 43
425 80 43
426 80 43
427 80 43
428 80 43
429 83 37
430 83 37
431 83 37
432 83 37
433 83 37
434 83 37
435 83 37
436 83 37
437 83 39
438 83 39
439 83 39
440 83 39
441 83 39
442 83 44
443 83 44
444 83 44
445 83 44
446 83 44
447 83 44
448 84 41
449 84 41
450 84 41
451 84 41
452 84 41
453 84 41
454 85 35
455 85 35
456 85 35
457 85 35
458 85 35
459 85 35
460 85 35
461 89 44
462 89 44
463 89 44
464 89 44
465 89 44
466 89 44
467 89 44
468 89 44
469 89 44
470 89 44
471 27 38
472 27 38
473 27 38
474 27 38
475 27 38
476 27 38
477 27 38
478 40 35
479 40 35
480 40 35
481 40 35
482 40 35
483 40 35
484 25 40
485 25 40
486 25 40
487 25 40
488 25 40
489 25 40
490 25 40
491 25 40
492 25 40
493 25 40
494 25 42
495 25 42
496 25 42
497 25 42
498 25 42
499 25 42
500 25 42
501 34 41
502 34 41
503 34 41
504 34 41
505 34 41
506 34 41
507 34 41
508 34 41
509 34 41
510 36 44
511 36 44
512 36 44
513 36 44
514 36 44
515 36 44
516 36 44
517 36 44
518 36 38
519 36 38
520 36 38
521 36 38
522 36 38
523 36 38
524 36 38
525 36 42
526 36 42
527 36 42
528 36 42
529 36 42
530 36 42
531 36 42
532 36 42
533 36 42
534 36 42
535 36 44
536 36 44
537 36 44
538 36 44
539 36 44
540 38 38
541 38 38
542 38 38
543 38 38
544 38 38
545 38 38
546 38 38
547 40 40
548 40 40
549 40 40
550 40 40
551 40 40
552 40 40
553 40 43
554 40 43
555 40 43
556 40 43
557 40 43
558 40 43
559 40 43
560 40 43
561 44 41
562 44 41
563 44 41
564 44 41
565 44 41
566 44 45
567 44 45
568 44 45
569 44 45
570 44 45
571 44 45
572 0 -10
573 0 -10
574 0 -10
575 0 -10
576 0 -10
577 0 -10
578 0 -10
579 0 -5
580 0 -5
581 0 -5
582 0 -5
583 0 -5
584 0 -5
585 8 -15
586 8 -15
587 8 -15
588 8 -15
589 8 -15
590 8 -15
591 8 -15
592 8 -15
593 7 -10
594 7 -10
595 7 -10
596 7 -10
597 7 -10
598 7 -10
599 7 -10
600 6 -7
601 6 -7
602 6 -7
603 6 -7
604 6 -7
605 6 -7
606 6 -7
607 6 -7
608 6 -7
609 6 -7
610 4 -5
611 4 -5
612 4 -5
613 4 -5
614 4 -5
615 4 -5
616 5 -3
617 5 -3
618 5 -3
619 5 -3
620 5 -3
621 5 -3
622 5 -3
623 5 -3
624 5 -3
625 5 -3
626 1 -3
627 1 -3
628 1 -3
629 1 -3
630 1 -3
631 1 -3
632 8 -5
633 8 -5
634 8 -5
635 8 -5
636 8 -5
637 8 -5
638 8 -5
639 11 -6
640 11 -6
641 11 -6
642 11 -6
643 11 -6
644 11 -6
645 10 -5
646 10 -5
647 10 -5
648 10 -5
649 10 -5
650 10 -5
651 8 -4
652 8 -4
653 8 -4
654 8 -4
655 8 -4
656 8 -4
657 10 -1
658 10 -1
659 10 -1
660 10 -1
661 10 -1
662 10 -1
663 10 -1
664 10 -1
665 12 -1
666 12 -1
667 12 -1
668 12 -1
669 12 -1
670 12 -1
671 12 -1
672 12 -1
673 12 -1
674 6 0
675 6 0
676 6 0
677 6 0
678 6 0
679 6 0
680 6 0
681 6 0
682 10 0
683 10 0
684 10 0
685 10 0
686 10 0
687 10 0
688 15 0
689 15 0
690 15 0
691 15 0
692 15 0
693 20 10
694 20 10
695 20 10
696 20 10
697 20 10
698 20 10
699 20 10
700 20 10
701 20 10
702 10 5
703 10 5
704 10 5
705 10 5
706 10 5
707 12 6
708 12 6
709 12 6
710 12 6
711 12 6
712 12 6
713 8 4
714 8 4
715 8 4
716 8 4
717 8 4
718 8 4
719 8 4
720 6 3
721 6 3
722 6 3
723 6 3
724 6 3
725 6 3
726 10 10
727 10 10
728 10 10
729 10 10
730 10 10
731 8 8
732 8 8
733 8 8
734 8 8
735 8 8
736 8 8
737 8 8
738 8 8
739 8 8
740 4 5
741 4 5
742 4 5
743 4 5
744 4 5
745 4 5
746 4 5
747 4 5
748 4 5
749 5 6
750 5 6
751 5 6
752 5 6
753 5 6
754 5 6
755 5 6
756 5 6
757 6 9
758 6 9
759 6 9
760 6 9
761 6 9
762 6 9
763 18 -12
764 18 -12
765 18 -12
766 18 -12
767 18 -12
768 23 -7
769 23 -7
770 23 -7
771 23 -7
772 23 -7
773 23 -7
774 20 5
775 20 5
776 20 5
777 20 5
778 20 5
779 20 5
780 20 5
781 20 5
782 3 -5
783 3 -5
784 3 -5
785 3 -5
786 3 -5
787 3 -5
788 3 -5
789 3 -5
790 5 -9
791 5 -9
792 5 -9
793 5 -9
794 5 -9
795 5 -9
796 5 -9
797 8 -14
798 8 -14
799 8 -14
800 8 -14
801 15 -8
802 15 -8
803 15 -8
804 15 -8
805 15 -8
806 15 -8
807 20 1
808 20 1
809 20 1
810 20 1
811 20 1
812 20 1
813 20 1
814 20 1
815 15 7
816 15 7
817 15 7
818 15 7
819 15 7
820 15 7
821 15 7
822 15 7
823 6 -12
824 6 -12
825 6 -12
826 6 -12
827 6 -12
828 6 -12
829 6 -12
830 15 -10
831 15 -10
832 15 -10
833 15 -10
834 15 -10
835 15 -10
836 15 -10
837 -5 -5
838 -5 -5
839 -5 -5
840 -5 -5
841 -5 -5
842 -5 5
843 -5 5
844 -5 5
845 -5 5
846 -5 5
847 -5 5
848 -5 5
849 -5 5
850 -5 5
DEMAND_SECTION
1 0
2 40
3 40
4 40
5 40
6 10
7 2
8 2
9 40
10 40
11 40
12 20
13 10
14 2
15 2
16 1
17 40
18 40
19 40
20 20
21 2
22 2
23 2
24 2
25 1
26 40
27 40
28 40
29 40
30 2
31 40
32 40
33 40
34 40
35 10
36 2
37 2
38 2
39 40
40 40
41 40
42 40
43 10
44 2
45 2
46 40
47 40
48 40
49 20
50 10
51 2
52 2
53 2
54 2
55 1
56 40
57 40
58 40
59 20
60 2
61 2
62 40
63 40
64 40
65 20
66 2
67 2
68 2
69 2
70 40
71 40
72 40
73 20
74 1
75 40
76 40
77 40
78 40
79 10
80 2
81 40
82 40
83 40
84 20
85 10
86 2
87 2
88 1
89 40
90 40
91 40
92 20
93 10
94 2
95 2
96 2
97 2
98 40
99 40
100 40
101 40
102 40
103 40
104 40
105 40
106 2
107 2
108 2
109 2
110 40
111 40
112 40
113 20
114 10
115 1
116 40
117 40
118 40
119 20
120 2
121 1
122 40
123 40
124 40
125 40
126 40
127 40
128 40
129 40
130 10
131 2
132 2
133 40
134 40
135 40
136 40
137 1
138 40
139 40
140 40
141 20
142 2
143 2
144 40
145 40
146 40
147 40
148 2
149 2
150 1
151 40
152 40
153 40
154 40
155 2
156 2
157 2
158 40
159 40
160 40
161 40
162 2
163 1
164 40
165 40
166 40
167 40
168 10
169 1
170 40
171 40
172 40
173 40
174 2
175 2
176 2
177 2
178 1
179 40
180 40
181 40
182 20
183 1
184 40
185 40
186 40
187 40
188 10
189 1
190 40
191 40
192 40
193 20
194 2
195 2
196 2
197 40
198 40
199 40
200 20
201 2
202 2
203 40
204 40
205 40
206 40
207 10
208 2
209 2
210 40
211 40
212 40
213 40
214 10
215 2
216 40
217 40
218 40
219 40
220 10
221 2
222 1
223 40
224 40
225 40
226 20
227 2
228 2
229 2
230 2
231 40
232 40
233 40
234 40
235 10
236 2
237 1
238 40
239 40
240 40
241 20
242 10
243 2
244 2
245 2
246 2
247 1
248 40
249 40
250 40
251 40
252 10
253 1
254 40
255 40
256 40
257 20
258 10
259 2
260 2
261 2
262 2
263 1
264 40
265 40
266 40
267 20
268 10
269 2
270 2
271 2
272 2
273 1
274 40
275 40
276 40
277 40
278 10
279 2
280 1
281 40
282 40
283 40
284 20
285 2
286 2
287 2
288 1
289 40
290 40
291 40
292 20
293 2
294 40
295 40
296 40
297 40
298 2
299 2
300 1
301 40
302 40
303 40
304 40
305 2
306 2
307 2
308 40
309 40
310 40
311 40
312 10
313 2
314 2
315 1
316 40
317 40
318 40
319 20
320 10
321 1
322 40
323 40
324 40
325 20
326 10
327 2
328 2
329 2
330 2
331 1
332 40
333 40
334 40
335 20
336 10
337 2
338 2
339 2
340 1
341 40
342 40
343 40
344 40
345 10
346 2
347 1
348 40
349 40
350 40
351 40
352 2
353 2
354 40
355 40
356 40
357 40
358 2
359 2
360 2
361 40
362 40
363 40
364 40
365 2
366 2
367 2
368 40
369 40
370 40
371 20
372 2
373 1
374 40
375 40
376 40
377 40
378 10
379 2
380 2
381 2
382 40
383 40
384 40
385 40
386 2
387 2
388 2
389 2
390 1
391 40
392 40
393 40
394 40
395 2
396 2
397 2
398 2
399 1
400 40
401 40
402 40
403 20
404 10
405 2
406 40
407 40
408 40
409 40
410 2
411 2
412 2
413 2
414 40
415 40
416 40
417 20
418 10
419 2
420 2
421 2
422 40
423 40
424 40
425 20
426 10
427 2
428 1
429 40
430 40
431 40
432 40
433 10
434 2
435 2
436 1
437 40
438 40
439 40
440 20
441 10
442 40
443 40
444 40
445 20
446 10
447 2
448 40
449 40
450 40
451 20
452 10
453 1
454 40
455 40
456 40
457 20
458 10
459 2
460 2
461 40
462 40
463 40
464 20
465 10
466 2
467 2
468 2
469 2
470 1
471 40
472 40
473 40
474 40
475 10
476 2
477 2
478 40
479 40
480 40
481 20
482 2
483 1
484 40
485 40
486 40
487 40
488 10
489 2
490 2
491 2
492 2
493 1
494 40
495 40
496 40
497 40
498 10
499 2
500 2
501 40
502 40
503 40
504 40
505 10
506 2
507 2
508 2
509 1
510 40
511 40
512 40
513 40
514 10
515 2
516 2
517 1
518 40
519 40
520 40
521 40
522 10
523 2
524 1
525 40
526 40
527 40
528 40
529 10
530 2
531 2
532 2
533 2
534 1
535 40
536 40
537 40
538 20
539 2
540 40
541 40
542 40
543 20
544 10
545 2
546 1
547 40
548 40
549 40
550 40
551 2
552 1
553 40
554 40
555 40
556 40
557 2
558 2
559 2
560 2
561 40
562 40
563 40
564 40
565 2
566 40
567 40
568 40
569 40
570 10
571 2
572 40
573 40
574 40
575 40
576 2
577 2
578 2
579 40
580 40
581 40
582 20
583 10
584 1
585 40
586 40
587 40
588 40
589 2
590 2
591 2
592 1
593 40
594 40
595 40
596 40
597 2
598 2
599 1
600 40
601 40
602 40
603 40
604 10
605 2
606 2
607 2
608 2
609 1
610 40
611 40
612 40
613 40
614 10
615 1
616 40
617 40
618 40
619 40
620 10
621 2
622 2
623 2
624 2
625 1
626 40
627 40
628 40
629 40
630 10
631 2
632 40
633 40
634 40
635 40
636 10
637 2
638 2
639 40
640 40
641 40
642 20
643 2
644 2
645 40
646 40
647 40
648 40
649 10
650 2
651 40
652 40
653 40
654 40
655 2
656 1
657 40
658 40
659 40
660 20
661 2
662 2
663 2
664 1
665 40
666 40
667 40
668 40
669 10
670 2
671 2
672 2
673 1
674 40
675 40
676 40
677 40
678 2
679 2
680 2
681 1
682 40
683 40
684 40
685 40
686 10
687 1
688 40
689 40
690 40
691 40
692 10
693 40
694 40
695 40
696 20
697 10
698 2
699 2
700 2
701 1
702 40
703 40
704 40
705 40
706 10
707 40
708 40
709 40
710 20
711 2
712 2
713 40
714 40
715 40
716 40
717 2
718 2
719 2
720 40
721 40
722 40
723 40
724 10
725 1
726 40
727 40
728 40
729 40
730 10
731 40
732 40
733 40
734 40
735 10
736 2
737 2
738 2
739 2
740 40
741 40
742 40
743 20
744 10
745 2
746 2
747 2
748 1
749 40
750 40
751 40
752 20
753 2
754 2
755 2
756 2
757 40
758 40
759 40
760 20
761 2
762 1
763 40
764 40
765 40
766 40
767 2
768 40
769 40
770 40
771 20
772 10
773 2
774 40
775 40
776 40
777 40
778 10
779 2
780 2
781 2
782 40
783 40
784 40
785 40
786 10
787 2
788 2
789 2
790 40
791 40
792 40
793 40
794 2
795 2
796 2
797 40
798 40
799 40
800 20
801 40
802 40
803 40
804 20
805 10
806 2
807 40
808 40
809 40
810 40
811 2
812 2
813 2
814 1
815 40
816 40
817 40
818 20
819 10
820 2
821 2
822 1
823 40
824 40
825 40
826 20
827 10
828 2
829 2
830 40
831 40
832 40
833 40
834 10
835 2
836 1
837 40
838 40
839 40
840 40
841 10
842 40
843 40
844 40
845 40
846 10
847 2
848 2
849 2
850 1
DEPOT_SECTION
1
-1
EOF