SDVRP instances/p11/p11_7090_tsplib0_split0.sol
849 -9 15 12 10 8 11 14 13 584 -18 17 16 31 33 -24 19 20 21 22 23 25 27 29 28 26 37 35 36 -30 32 34 41 44 42 833 830 834 835 -38 39 70 71 69 -43 40 46 52 53 54 48 49 45 47 50 -51 66 63 61 68 67 65 104 101 73 72 -60 57 58 59 55 56 93 94 95 89 96 -62 74 77 76 75 -64 99 98 105 102 108 103 106 107 79 78 -81 83 85 84 87 86 112 114 113 117 116 119 -82 80 109 110 111 -92 88 90 91 100 97 -115 125 127 128 126 -120 118 131 130 129 157 159 161 160 158 162 -122 121 832 829 831 -124 123 801 802 800 -133 150 153 152 151 -135 132 134 139 138 -136 154 163 166 167 188 186 187 183 174 177 173 175 176 -137 169 171 170 172 -141 140 207 202 204 205 208 203 206 155 156 -142 213 214 210 189 191 195 193 194 192 190 -145 143 146 144 164 -149 148 147 221 215 216 219 220 218 217 181 182 -168 165 201 196 200 197 199 198 -180 179 178 184 185 -209 212 211 233 231 -226 225 227 222 224 223 228 229 230 235 234 -232 236 239 238 243 244 237 241 240 242 246 245 -251 249 252 282 283 281 286 280 287 284 285 258 -253 247 248 250 769 -256 255 257 254 262 261 260 259 272 264 265 271 -263 270 268 269 267 288 290 289 291 292 -266 329 322 330 345 343 346 342 341 344 -274 273 768 767 772 771 770 -275 276 293 296 294 -278 277 279 313 312 311 314 359 358 357 355 356 353 354 299 297 298 -295 307 308 309 310 -303 302 300 301 304 305 318 319 327 328 326 -306 315 320 316 351 352 348 325 323 324 -317 340 347 350 349 -321 331 338 333 334 332 335 339 337 336 -363 360 361 362 367 -364 366 365 380 374 379 376 377 694 699 696 704 -369 368 383 381 382 -371 370 372 389 386 385 384 387 407 406 394 393 395 398 396 397 -373 404 403 401 400 399 402 -378 375 415 419 420 413 417 416 414 418 -388 410 405 409 411 408 412 425 422 424 421 -391 390 392 567 565 -427 423 426 441 443 444 445 446 442 -433 428 429 434 430 432 437 439 -435 431 457 453 456 458 455 454 459 -438 440 436 451 448 450 449 -447 452 465 463 460 469 464 468 462 466 461 467 -470 485 484 486 483 -473 512 534 503 501 -475 476 474 471 472 695 693 700 697 698 692 -477 478 481 482 480 479 517 521 522 523 -489 490 492 488 487 491 494 495 499 493 496 497 498 -500 504 507 531 529 524 530 532 528 533 525 526 -506 505 508 502 510 537 566 568 570 569 550 551 -515 511 516 513 536 535 538 514 509 556 558 559 557 -519 518 520 539 541 -527 553 555 554 552 -540 546 547 548 549 -542 545 544 543 563 561 560 564 562 -580 578 579 627 628 -582 571 577 576 575 574 573 572 581 583 -586 585 798 796 797 -594 592 593 595 792 -596 598 597 799 591 589 588 590 587 794 790 789 793 791 795 -601 608 825 824 827 826 828 823 822 -603 604 602 607 606 605 600 599 635 637 631 -609 612 615 617 616 -611 610 781 784 783 -622 624 620 621 618 619 623 614 613 782 788 626 630 625 -629 2 5 3 4 1 6 7 786 787 785 -634 632 653 650 651 -636 633 641 640 642 643 638 639 649 648 -646 645 647 644 652 -654 655 803 805 804 762 765 763 766 764 -656 658 674 673 675 -657 666 667 664 665 -659 661 662 660 663 669 670 671 672 688 690 687 689 677 680 679 -668 691 811 808 806 813 809 807 810 812 685 686 678 -676 683 684 682 681 -701 706 707 709 710 708 711 705 718 717 716 -703 702 714 713 712 -715 814 818 816 819 820 817 821 815 -719 721 722 720 740 -723 724 725 728 726 745 744 741 747 743 746 -729 727 759 757 756 761 760 758 -734 732 731 737 736 735 738 733 730 752 751 -739 742 754 748 749 755 753 750 -776 779 774 773 778 780 775 777 -837 839 838 836 840 -841 846 842 843 848 844 849 845 847 0 





OBJ=
10551.927
BEST_KNOWN=
0.000